unsat
(forall ((A (_ BitVec 6))
         (B (_ BitVec 6))
         (C (_ BitVec 6))
         (D (_ BitVec 1))
         (E (_ BitVec 6))
         (F (_ BitVec 6))
         (G (_ BitVec 6))
         (H (_ BitVec 6))
         (I (_ BitVec 6))
         (J (_ BitVec 6))
         (K (_ BitVec 128))
         (L (_ BitVec 7))
         (M (_ BitVec 1))
         (N (_ BitVec 128))
         (O (_ BitVec 128))
         (P (_ BitVec 128))
         (Q (_ BitVec 128))
         (R (_ BitVec 128))
         (S (_ BitVec 128))
         (T (_ BitVec 128))
         (U (_ BitVec 128))
         (V (_ BitVec 128))
         (W (_ BitVec 128))
         (X (_ BitVec 128))
         (Y (_ BitVec 128))
         (Z (_ BitVec 128))
         (A1 (_ BitVec 128))
         (B1 (_ BitVec 128))
         (C1 (_ BitVec 128))
         (D1 (_ BitVec 128))
         (E1 (_ BitVec 128))
         (F1 (_ BitVec 128))
         (G1 (_ BitVec 128))
         (H1 (_ BitVec 128))
         (I1 (_ BitVec 128))
         (J1 (_ BitVec 128))
         (K1 (_ BitVec 128))
         (L1 (_ BitVec 128))
         (M1 (_ BitVec 128))
         (N1 (_ BitVec 128))
         (O1 (_ BitVec 128))
         (P1 (_ BitVec 128))
         (Q1 (_ BitVec 128))
         (R1 (_ BitVec 128))
         (S1 (_ BitVec 128))
         (T1 (_ BitVec 128))
         (U1 (_ BitVec 128))
         (V1 (_ BitVec 128))
         (W1 (_ BitVec 128))
         (X1 (_ BitVec 6))
         (Y1 (_ BitVec 128))
         (Z1 (_ BitVec 128))
         (A2 (_ BitVec 128))
         (B2 (_ BitVec 6))
         (C2 (_ BitVec 128))
         (D2 (_ BitVec 128))
         (E2 (_ BitVec 128))
         (F2 (_ BitVec 128))
         (G2 (_ BitVec 128))
         (H2 (_ BitVec 128))
         (I2 (_ BitVec 128))
         (J2 (_ BitVec 128))
         (K2 (_ BitVec 128))
         (L2 (_ BitVec 128))
         (M2 (_ BitVec 128))
         (N2 (_ BitVec 128))
         (O2 (_ BitVec 128))
         (P2 (_ BitVec 128))
         (Q2 (_ BitVec 128))
         (R2 (_ BitVec 128))
         (S2 (_ BitVec 6))
         (T2 (_ BitVec 128))
         (U2 (_ BitVec 128))
         (V2 (_ BitVec 128))
         (W2 (_ BitVec 128))
         (X2 (_ BitVec 6))
         (Y2 (_ BitVec 128))
         (Z2 (_ BitVec 128))
         (A3 (_ BitVec 1))
         (B3 (_ BitVec 128))
         (C3 (_ BitVec 128))
         (D3 (_ BitVec 128))
         (E3 (_ BitVec 128))
         (F3 (_ BitVec 128))
         (G3 (_ BitVec 6))
         (H3 (_ BitVec 128))
         (I3 (_ BitVec 128))
         (J3 (_ BitVec 128))
         (K3 (_ BitVec 128))
         (L3 (_ BitVec 128))
         (M3 (_ BitVec 128))
         (N3 (_ BitVec 128))
         (O3 (_ BitVec 128))
         (P3 (_ BitVec 128))
         (Q3 (_ BitVec 128))
         (R3 (_ BitVec 128))
         (S3 (_ BitVec 128))
         (T3 (_ BitVec 128))
         (U3 (_ BitVec 128))
         (V3 (_ BitVec 128))
         (W3 (_ BitVec 128))
         (X3 (_ BitVec 128))
         (Y3 (_ BitVec 128))
         (Z3 (_ BitVec 128))
         (A4 (_ BitVec 128))
         (B4 (_ BitVec 128))
         (C4 (_ BitVec 128))
         (D4 (_ BitVec 128))
         (E4 (_ BitVec 128))
         (F4 (_ BitVec 128))
         (G4 (_ BitVec 128))
         (H4 (_ BitVec 128))
         (I4 (_ BitVec 128))
         (J4 (_ BitVec 128))
         (K4 (_ BitVec 128))
         (L4 (_ BitVec 128))
         (M4 (_ BitVec 6))
         (N4 (_ BitVec 128))
         (O4 (_ BitVec 128))
         (P4 (_ BitVec 128))
         (Q4 (_ BitVec 128))
         (R4 (_ BitVec 128))
         (S4 (_ BitVec 128))
         (T4 (_ BitVec 128))
         (U4 (_ BitVec 128))
         (V4 (_ BitVec 128))
         (W4 (_ BitVec 128))
         (X4 (_ BitVec 128))
         (Y4 (_ BitVec 128))
         (Z4 (_ BitVec 128))
         (A5 (_ BitVec 128))
         (B5 (_ BitVec 128))
         (C5 (_ BitVec 128))
         (D5 (_ BitVec 128))
         (E5 (_ BitVec 128))
         (F5 (_ BitVec 6))
         (G5 (_ BitVec 128))
         (H5 (_ BitVec 128))
         (I5 (_ BitVec 128))
         (J5 (_ BitVec 6))
         (K5 (_ BitVec 128))
         (L5 (_ BitVec 128))
         (M5 (_ BitVec 128))
         (N5 (_ BitVec 6))
         (O5 (_ BitVec 128))
         (P5 (_ BitVec 128))
         (Q5 (_ BitVec 128))
         (R5 (_ BitVec 128))
         (S5 (_ BitVec 128))
         (T5 (_ BitVec 128))
         (U5 (_ BitVec 128))
         (V5 (_ BitVec 128))
         (W5 (_ BitVec 128))
         (X5 (_ BitVec 128))
         (Y5 (_ BitVec 128))
         (Z5 (_ BitVec 128))
         (A6 (_ BitVec 128))
         (B6 (_ BitVec 128))
         (C6 (_ BitVec 128))
         (D6 (_ BitVec 128))
         (E6 (_ BitVec 128))
         (F6 (_ BitVec 128))
         (G6 (_ BitVec 128))
         (H6 (_ BitVec 128))
         (I6 (_ BitVec 128))
         (J6 (_ BitVec 128))
         (K6 (_ BitVec 6))
         (L6 (_ BitVec 128))
         (M6 (_ BitVec 128))
         (N6 (_ BitVec 128))
         (O6 (_ BitVec 128))
         (P6 (_ BitVec 128))
         (Q6 (_ BitVec 128))
         (R6 (_ BitVec 128))
         (S6 (_ BitVec 6))
         (T6 (_ BitVec 128))
         (U6 (_ BitVec 128))
         (V6 (_ BitVec 128))
         (W6 (_ BitVec 128))
         (X6 (_ BitVec 128))
         (Y6 (_ BitVec 128))
         (Z6 (_ BitVec 128))
         (A7 (_ BitVec 128))
         (B7 (_ BitVec 1))
         (C7 (_ BitVec 128))
         (D7 (_ BitVec 128))
         (E7 (_ BitVec 128))
         (F7 (_ BitVec 1))
         (G7 (_ BitVec 128))
         (H7 (_ BitVec 128))
         (I7 (_ BitVec 128))
         (J7 (_ BitVec 1))
         (K7 (_ BitVec 1))
         (L7 (_ BitVec 1))
         (M7 (_ BitVec 640))
         (N7 (_ BitVec 3))
         (O7 (_ BitVec 128))
         (P7 (_ BitVec 5))
         (Q7 (_ BitVec 1)))
  (! (= (INV!slice!1 A
                     B
                     C
                     D
                     E
                     F
                     G
                     H
                     I
                     J
                     K
                     L
                     M
                     N
                     O
                     P
                     Q
                     R
                     S
                     T
                     U
                     V
                     W
                     X
                     Y
                     Z
                     A1
                     B1
                     C1
                     D1
                     E1
                     F1
                     G1
                     H1
                     I1
                     J1
                     K1
                     L1
                     M1
                     N1
                     O1
                     P1
                     Q1
                     R1
                     S1
                     T1
                     U1
                     V1
                     W1
                     X1
                     Y1
                     Z1
                     A2
                     B2
                     C2
                     D2
                     E2
                     F2
                     G2
                     H2
                     I2
                     J2
                     K2
                     L2
                     M2
                     N2
                     O2
                     P2
                     Q2
                     R2
                     S2
                     T2
                     U2
                     V2
                     W2
                     X2
                     Y2
                     Z2
                     A3
                     B3
                     C3
                     D3
                     E3
                     F3
                     G3
                     H3
                     I3
                     J3
                     K3
                     L3
                     M3
                     N3
                     O3
                     P3
                     Q3
                     R3
                     S3
                     T3
                     U3
                     V3
                     W3
                     X3
                     Y3
                     Z3
                     A4
                     B4
                     C4
                     D4
                     E4
                     F4
                     G4
                     H4
                     I4
                     J4
                     K4
                     L4
                     M4
                     N4
                     O4
                     P4
                     Q4
                     R4
                     S4
                     T4
                     U4
                     V4
                     W4
                     X4
                     Y4
                     Z4
                     A5
                     B5
                     C5
                     D5
                     E5
                     F5
                     G5
                     H5
                     I5
                     J5
                     K5
                     L5
                     M5
                     N5
                     O5
                     P5
                     Q5
                     R5
                     S5
                     T5
                     U5
                     V5
                     W5
                     X5
                     Y5
                     Z5
                     A6
                     B6
                     C6
                     D6
                     E6
                     F6
                     G6
                     H6
                     I6
                     J6
                     K6
                     L6
                     M6
                     N6
                     O6
                     P6
                     Q6
                     R6
                     S6
                     T6
                     U6
                     V6
                     W6
                     X6
                     Y6
                     Z6
                     A7
                     B7
                     C7
                     D7
                     E7
                     F7
                     G7
                     H7
                     I7
                     J7
                     K7
                     L7
                     M7
                     N7
                     O7
                     P7
                     Q7)
        false)
     :weight 0))
